QPLIB_3240
LCQ
minimize
516 # number of variables
407 # number of constraints
0.0 # default value for linear coefficients in objective
10 # number of non-default linear coefficients in objective
1 1.0
2 1.0
3 1.0
4 1.0
5 1.0
6 1.0
7 1.0
8 1.0
9 1.0
10 1.0
0.0 # objective constant
220 # number of quadratic terms in all constraints
188 1 1 2.0
189 1835091724 1651076122 2.0
190 1919243892 1852403556 2.0
191 1852795252 1768711012 2.0
192 775173731 32592 2.0
193 1646292852 1 2.0
194 824209008 1 2.0
195 12321 34 2.0
196 1 1 2.0
197 1835091724 10878977 2.0
198 1919243892 1 2.0
199 1852795252 50 2.0
200 32592 1 2.0
201 1651076122 1 2.0
202 1852403556 1 2.0
203 1768711012 130 2.0
204 775173731 1 2.0
205 1663070068 -2036825247 2.0
206 824206179 32592 2.0
207 12321 2 2.0
208 1 1 2.0
209 10939857 193 2.0
210 1 1 2.0
211 50 1 2.0
212 1 1 2.0
213 1651076122 10932801 2.0
214 1852403556 1 2.0
215 1768711012 10939889 2.0
216 775173731 1 2.0
217 1663070068 1 2.0
218 824210800 1 2.0
219 1 -2012925919 2.0
220 32592 1 2.0
221 1 1 2.0
222 2 1 2.0
223 50 1 2.0
224 6 1 2.0
225 1651076122 2 2.0
226 1852403556 2 2.0
227 1768711012 1 2.0
228 775173731 1 2.0
229 1763733364 2 2.0
230 824209265 1 2.0
231 12321 1 2.0
232 1 1 2.0
233 10939921 1 2.0
234 1 1 2.0
235 50 34 2.0
236 1 1 2.0
237 1735347211 1651076122 2.0
238 1953525537 1852403556 2.0
239 1768711012 -2006028438 2.0
240 775173731 32592 2.0
241 1864396660 1 2.0
242 824205172 1 2.0
243 12321 34 2.0
244 1 1 2.0
245 1735347210 1 2.0
246 1769238608 1 2.0
247 50 -2012909968 2.0
248 32592 1 2.0
249 1651076122 1 2.0
250 1852403556 1 2.0
251 1768711012 50 2.0
252 775173731 1 2.0
253 1931505524 -2036824415 2.0
254 824209508 32592 2.0
255 1 -2012925663 2.0
256 32592 17 2.0
257 385 6 2.0
258 1 1 2.0
259 10940049 50 2.0
260 1 1 2.0
261 1651076121 1213481297 2.0
262 1684959076 538976289 2.0
263 1651076196 50 2.0
264 1932407863 1 2.0
265 1868767344 -2036825183 2.0
266 540090479 32592 2.0
267 50 2 2.0
268 1 1 2.0
269 10940017 10936817 2.0
270 1 1 2.0
271 50 1 2.0
272 1 1 2.0
273 1651076121 1 2.0
274 1684959076 1 2.0
275 1651076196 34 2.0
276 1932407863 1 2.0
277 1868767344 544173582 2.0
278 543649645 540090479 2.0
279 1886680432 -2012909006 2.0
280 32592 29814 2.0
281 481 1 2.0
282 1 1 2.0
283 146 50 2.0
284 1 1 2.0
285 1651076121 10939969 2.0
286 1681157988 1 2.0
287 1651076196 10940193 2.0
288 1932407863 1 2.0
289 1868767344 10940289 2.0
290 540090421 1 2.0
291 10940369 2097 2.0
292 1 1 2.0
293 10955665 10940465 2.0
294 1 1 2.0
295 1937075814 50 2.0
296 1853190703 1 2.0
297 1936549643 1651076121 2.0
298 1970169192 1684959076 2.0
299 1970220665 1651076196 2.0
300 1932407863 1095764597 2.0
301 1868767344 1280198741 2.0
302 540090479 538976337 2.0
303 825303073 50 2.0
304 540352562 1 2.0
305 540090418 -2012914695 2.0
306 540090417 32592 2.0
307 540024882 50 2.0
308 540024881 1 2.0
309 1651076121 540090417 2.0
310 1684305508 540024882 2.0
311 1651076196 540024882 2.0
312 1932407863 170926130 2.0
313 1986207856 1886612840 2.0
314 1937075829 540090469 2.0
315 1853190703 10938417 2.0
316 1936549643 1 2.0
317 1970173041 10955681 2.0
318 1970220665 1 2.0
319 50 50 2.0
320 1 1 2.0
321 1651076122 -2036825183 2.0
322 1852403556 32592 2.0
323 1768711012 2 2.0
324 775173731 1 2.0
325 1663070068 10940241 2.0
326 824210800 1 2.0
327 10956833 1 2.0
328 1 1 2.0
329 10957841 2 2.0
330 1 1 2.0
331 50 34 2.0
332 1 1 2.0
333 1735355423 -2027075391 2.0
334 1953853217 32592 2.0
335 544503153 10918817 2.0
336 1931505525 1 2.0
337 1701147236 1 2.0
338 1663574127 1 2.0
339 1869835888 34 2.0
340 2712941 1 2.0
341 -2147483648 538989392 2.0
342 -2147483648 825241889 2.0
343 50 1 2.0
344 1 1 2.0
345 1 -2036825183 2.0
346 32592 1 2.0
347 1650 2 2.0
348 1 1 2.0
349 10940337 1 2.0
350 1 1 2.0
351 1 1 2.0
352 1 1 2.0
353 3 1 2.0
354 1 1 2.0
355 34 1 2.0
356 1 1 2.0
357 1735355414 1 2.0
358 1953853217 1 2.0
359 544503153 1 2.0
360 1814065013 1 2.0
361 1768318832 1 2.0
362 25965 1 2.0
363 50 1 2.0
364 1 1 2.0
365 1 -2036825183 2.0
366 32592 1 2.0
367 2 1 2.0
368 1 1 2.0
369 10940417 1 2.0
370 1 1 2.0
371 1 1 2.0
372 1 1 2.0
373 4 1 2.0
374 1 1 2.0
375 50 1 2.0
376 1 1 2.0
377 1735355422 1 2.0
378 1953853217 1 2.0
379 544503153 1 2.0
380 1931505525 1 2.0
381 1684955509 1 2.0
382 543453794 1 2.0
383 1886680432 1 2.0
384 29814 1 2.0
385 824193313 1 2.0
386 824193313 1 2.0
387 50 1 2.0
388 1 1 2.0
389 1 -2036825183 2.0
390 32592 1 2.0
391 2 1 2.0
392 1 1 2.0
393 10940513 1 2.0
394 1 1 2.0
395 1 1 2.0
396 1 1 2.0
397 5 1 2.0
398 1 1 2.0
399 66 1 2.0
400 1 1 2.0
401 1735355434 1 2.0
402 1953853217 1 2.0
403 544503153 1 2.0
404 1814065013 1 2.0
405 1768318832 1 2.0
406 1629513069 1 2.0
407 1931502703 1 2.0
1467 # number of linear terms in all constraints
1 11 -1.0
1 12 -1.0
1 13 -1.0
1 14 -1.0
1 15 -1.0
1 16 -1.0
1 17 -1.0
1 18 -1.0
1 19 -1.0
1 20 -1.0
1 21 -1.0
2 22 -1.0
2 23 -1.0
2 24 -1.0
2 25 -1.0
2 26 -1.0
2 27 -1.0
2 28 -1.0
2 29 -1.0
2 30 -1.0
2 31 -1.0
2 32 -1.0
3 33 -1.0
3 34 -1.0
3 35 -1.0
3 36 -1.0
3 37 -1.0
3 38 -1.0
3 39 -1.0
3 40 -1.0
3 41 -1.0
3 42 -1.0
3 43 -1.0
4 44 -1.0
4 45 -1.0
4 46 -1.0
4 47 -1.0
4 48 -1.0
4 49 -1.0
4 50 -1.0
4 51 -1.0
4 52 -1.0
4 53 -1.0
4 54 -1.0
5 55 -1.0
5 56 -1.0
5 57 -1.0
5 58 -1.0
5 59 -1.0
5 60 -1.0
5 61 -1.0
5 62 -1.0
5 63 -1.0
5 64 -1.0
5 65 -1.0
6 1 1.0
6 12 -1.0
6 23 -1.0
6 34 -1.0
6 45 -1.0
6 56 -1.0
6 66 -1.0
6 67 -1.0
6 68 -1.0
6 69 -1.0
6 70 -1.0
6 71 -1.0
6 72 -1.0
6 73 -1.0
6 74 -1.0
6 75 -1.0
7 2 1.0
7 13 -1.0
7 24 -1.0
7 35 -1.0
7 46 -1.0
7 57 -1.0
7 76 -1.0
7 77 -1.0
7 78 -1.0
7 79 -1.0
7 80 -1.0
7 81 -1.0
7 82 -1.0
7 83 -1.0
7 84 -1.0
7 85 -1.0
8 3 1.0
8 14 -1.0
8 25 -1.0
8 36 -1.0
8 47 -1.0
8 58 -1.0
8 86 -1.0
8 87 -1.0
8 88 -1.0
8 89 -1.0
8 90 -1.0
8 91 -1.0
8 92 -1.0
8 93 -1.0
8 94 -1.0
8 95 -1.0
9 4 1.0
9 15 -1.0
9 26 -1.0
9 37 -1.0
9 48 -1.0
9 59 -1.0
9 96 -1.0
9 97 -1.0
9 98 -1.0
9 99 -1.0
9 100 -1.0
9 101 -1.0
9 102 -1.0
9 103 -1.0
9 104 -1.0
9 105 -1.0
10 5 1.0
10 16 -1.0
10 27 -1.0
10 38 -1.0
10 49 -1.0
10 60 -1.0
10 106 -1.0
10 107 -1.0
10 108 -1.0
10 109 -1.0
10 110 -1.0
10 111 -1.0
10 112 -1.0
10 113 -1.0
10 114 -1.0
10 115 -1.0
11 6 1.0
11 17 -1.0
11 28 -1.0
11 39 -1.0
11 50 -1.0
11 61 -1.0
11 116 -1.0
11 117 -1.0
11 118 -1.0
11 119 -1.0
11 120 -1.0
11 121 -1.0
11 122 -1.0
11 123 -1.0
11 124 -1.0
11 125 -1.0
12 7 1.0
12 18 -1.0
12 29 -1.0
12 40 -1.0
12 51 -1.0
12 62 -1.0
12 126 -1.0
12 127 -1.0
12 128 -1.0
12 129 -1.0
12 130 -1.0
12 131 -1.0
12 132 -1.0
12 133 -1.0
12 134 -1.0
12 135 -1.0
13 8 1.0
13 19 -1.0
13 30 -1.0
13 41 -1.0
13 52 -1.0
13 63 -1.0
13 136 -1.0
13 137 -1.0
13 138 -1.0
13 139 -1.0
13 140 -1.0
13 141 -1.0
13 142 -1.0
13 143 -1.0
13 144 -1.0
13 145 -1.0
14 9 1.0
14 20 -1.0
14 31 -1.0
14 42 -1.0
14 53 -1.0
14 64 -1.0
14 146 -1.0
14 147 -1.0
14 148 -1.0
14 149 -1.0
14 150 -1.0
14 151 -1.0
14 152 -1.0
14 153 -1.0
14 154 -1.0
14 155 -1.0
15 10 1.0
15 21 -1.0
15 32 -1.0
15 43 -1.0
15 54 -1.0
15 65 -1.0
15 156 -1.0
15 157 -1.0
15 158 -1.0
15 159 -1.0
15 160 -1.0
15 161 -1.0
15 162 -1.0
15 163 -1.0
15 164 -1.0
15 165 -1.0
16 1 1.0
16 66 -1.0
16 76 -1.0
16 86 -1.0
16 96 -1.0
16 106 -1.0
16 116 -1.0
16 126 -1.0
16 136 -1.0
16 146 -1.0
16 156 -1.0
16 166 -1.0
17 2 1.0
17 67 -1.0
17 77 -1.0
17 87 -1.0
17 97 -1.0
17 107 -1.0
17 117 -1.0
17 127 -1.0
17 137 -1.0
17 147 -1.0
17 157 -1.0
17 167 -1.0
18 3 1.0
18 68 -1.0
18 78 -1.0
18 88 -1.0
18 98 -1.0
18 108 -1.0
18 118 -1.0
18 128 -1.0
18 138 -1.0
18 148 -1.0
18 158 -1.0
18 168 -1.0
19 4 1.0
19 69 -1.0
19 79 -1.0
19 89 -1.0
19 99 -1.0
19 109 -1.0
19 119 -1.0
19 129 -1.0
19 139 -1.0
19 149 -1.0
19 159 -1.0
19 169 -1.0
20 5 1.0
20 70 -1.0
20 80 -1.0
20 90 -1.0
20 100 -1.0
20 110 -1.0
20 120 -1.0
20 130 -1.0
20 140 -1.0
20 150 -1.0
20 160 -1.0
20 170 -1.0
21 6 1.0
21 71 -1.0
21 81 -1.0
21 91 -1.0
21 101 -1.0
21 111 -1.0
21 121 -1.0
21 131 -1.0
21 141 -1.0
21 151 -1.0
21 161 -1.0
21 171 -1.0
22 7 1.0
22 72 -1.0
22 82 -1.0
22 92 -1.0
22 102 -1.0
22 112 -1.0
22 122 -1.0
22 132 -1.0
22 142 -1.0
22 152 -1.0
22 162 -1.0
22 172 -1.0
23 8 1.0
23 73 -1.0
23 83 -1.0
23 93 -1.0
23 103 -1.0
23 113 -1.0
23 123 -1.0
23 133 -1.0
23 143 -1.0
23 153 -1.0
23 163 -1.0
23 173 -1.0
24 9 1.0
24 74 -1.0
24 84 -1.0
24 94 -1.0
24 104 -1.0
24 114 -1.0
24 124 -1.0
24 134 -1.0
24 144 -1.0
24 154 -1.0
24 164 -1.0
24 174 -1.0
25 10 1.0
25 75 -1.0
25 85 -1.0
25 95 -1.0
25 105 -1.0
25 115 -1.0
25 125 -1.0
25 135 -1.0
25 145 -1.0
25 155 -1.0
25 165 -1.0
25 175 -1.0
26 11 -1.0
26 22 -1.0
26 33 -1.0
26 44 -1.0
26 55 -1.0
26 166 -1.0
26 167 -1.0
26 168 -1.0
26 169 -1.0
26 170 -1.0
26 171 -1.0
26 172 -1.0
26 173 -1.0
26 174 -1.0
26 175 -1.0
26 176 1.0
27 177 -1.0
27 178 -1.0
27 179 -1.0
27 180 -1.0
27 181 -1.0
27 182 -1.0
27 183 -1.0
27 184 -1.0
27 185 -1.0
27 186 -1.0
27 187 -1.0
28 188 -1.0
28 189 -1.0
28 190 -1.0
28 191 -1.0
28 192 -1.0
28 193 -1.0
28 194 -1.0
28 195 -1.0
28 196 -1.0
28 197 -1.0
28 198 -1.0
29 199 -1.0
29 200 -1.0
29 201 -1.0
29 202 -1.0
29 203 -1.0
29 204 -1.0
29 205 -1.0
29 206 -1.0
29 207 -1.0
29 208 -1.0
29 209 -1.0
30 210 -1.0
30 211 -1.0
30 212 -1.0
30 213 -1.0
30 214 -1.0
30 215 -1.0
30 216 -1.0
30 217 -1.0
30 218 -1.0
30 219 -1.0
30 220 -1.0
31 221 -1.0
31 222 -1.0
31 223 -1.0
31 224 -1.0
31 225 -1.0
31 226 -1.0
31 227 -1.0
31 228 -1.0
31 229 -1.0
31 230 -1.0
31 231 -1.0
32 178 -1.0
32 232 29700.0
33 179 -1.0
33 233 29700.0
34 180 -1.0
34 234 29700.0
35 181 -1.0
35 235 29700.0
36 182 -1.0
36 236 29700.0
37 183 -1.0
37 237 29700.0
38 184 -1.0
38 238 29700.0
39 185 -1.0
39 239 29700.0
40 186 -1.0
40 240 29700.0
41 187 -1.0
41 241 29700.0
42 189 -1.0
42 242 17500.0
43 190 -1.0
43 243 17500.0
44 191 -1.0
44 244 17500.0
45 192 -1.0
45 245 17500.0
46 193 -1.0
46 246 17500.0
47 194 -1.0
47 247 17500.0
48 195 -1.0
48 248 17500.0
49 196 -1.0
49 249 17500.0
50 197 -1.0
50 250 17500.0
51 198 -1.0
51 251 17500.0
52 200 -1.0
52 252 30000.0
53 201 -1.0
53 253 30000.0
54 202 -1.0
54 254 30000.0
55 203 -1.0
55 255 30000.0
56 204 -1.0
56 256 30000.0
57 205 -1.0
57 257 30000.0
58 206 -1.0
58 258 30000.0
59 207 -1.0
59 259 30000.0
60 208 -1.0
60 260 30000.0
61 209 -1.0
61 261 30000.0
62 211 -1.0
62 262 9600.0
63 212 -1.0
63 263 9600.0
64 213 -1.0
64 264 9600.0
65 214 -1.0
65 265 9600.0
66 215 -1.0
66 266 9600.0
67 216 -1.0
67 267 9600.0
68 217 -1.0
68 268 9600.0
69 218 -1.0
69 269 9600.0
70 219 -1.0
70 270 9600.0
71 220 -1.0
71 271 9600.0
72 222 -1.0
72 272 15600.0
73 223 -1.0
73 273 15600.0
74 224 -1.0
74 274 15600.0
75 225 -1.0
75 275 15600.0
76 226 -1.0
76 276 15600.0
77 227 -1.0
77 277 15600.0
78 228 -1.0
78 278 15600.0
79 229 -1.0
79 279 15600.0
80 230 -1.0
80 280 15600.0
81 231 -1.0
81 281 15600.0
82 177 -1.0
82 282 29700.0
83 188 -1.0
83 283 17500.0
84 199 -1.0
84 284 30000.0
85 210 -1.0
85 285 9600.0
86 221 -1.0
86 286 15600.0
87 12 -1.0
87 232 90.0
88 13 -1.0
88 233 90.0
89 14 -1.0
89 234 90.0
90 15 -1.0
90 235 90.0
91 16 -1.0
91 236 90.0
92 17 -1.0
92 237 90.0
93 18 -1.0
93 238 90.0
94 19 -1.0
94 239 90.0
95 20 -1.0
95 240 90.0
96 21 -1.0
96 241 90.0
97 23 -1.0
97 242 350.0
98 24 -1.0
98 243 350.0
99 25 -1.0
99 244 350.0
100 26 -1.0
100 245 350.0
101 27 -1.0
101 246 350.0
102 28 -1.0
102 247 350.0
103 29 -1.0
103 248 350.0
104 30 -1.0
104 249 350.0
105 31 -1.0
105 250 350.0
106 32 -1.0
106 251 350.0
107 34 -1.0
107 252 200.0
108 35 -1.0
108 253 200.0
109 36 -1.0
109 254 200.0
110 37 -1.0
110 255 200.0
111 38 -1.0
111 256 200.0
112 39 -1.0
112 257 200.0
113 40 -1.0
113 258 200.0
114 41 -1.0
114 259 200.0
115 42 -1.0
115 260 200.0
116 43 -1.0
116 261 200.0
117 45 -1.0
117 262 40.0
118 46 -1.0
118 263 40.0
119 47 -1.0
119 264 40.0
120 48 -1.0
120 265 40.0
121 49 -1.0
121 266 40.0
122 50 -1.0
122 267 40.0
123 51 -1.0
123 268 40.0
124 52 -1.0
124 269 40.0
125 53 -1.0
125 270 40.0
126 54 -1.0
126 271 40.0
127 56 -1.0
127 272 130.0
128 57 -1.0
128 273 130.0
129 58 -1.0
129 274 130.0
130 59 -1.0
130 275 130.0
131 60 -1.0
131 276 130.0
132 61 -1.0
132 277 130.0
133 62 -1.0
133 278 130.0
134 63 -1.0
134 279 130.0
135 64 -1.0
135 280 130.0
136 65 -1.0
136 281 130.0
137 11 -1.0
137 282 90.0
138 22 -1.0
138 283 350.0
139 33 -1.0
139 284 200.0
140 44 -1.0
140 285 40.0
141 55 -1.0
141 286 130.0
142 232 1.0
142 233 1.0
142 234 1.0
142 235 1.0
142 236 1.0
142 237 1.0
142 238 1.0
142 239 1.0
142 240 1.0
142 241 1.0
142 282 1.0
143 242 1.0
143 243 1.0
143 244 1.0
143 245 1.0
143 246 1.0
143 247 1.0
143 248 1.0
143 249 1.0
143 250 1.0
143 251 1.0
143 283 1.0
144 252 1.0
144 253 1.0
144 254 1.0
144 255 1.0
144 256 1.0
144 257 1.0
144 258 1.0
144 259 1.0
144 260 1.0
144 261 1.0
144 284 1.0
145 262 1.0
145 263 1.0
145 264 1.0
145 265 1.0
145 266 1.0
145 267 1.0
145 268 1.0
145 269 1.0
145 270 1.0
145 271 1.0
145 285 1.0
146 272 1.0
146 273 1.0
146 274 1.0
146 275 1.0
146 276 1.0
146 277 1.0
146 278 1.0
146 279 1.0
146 280 1.0
146 281 1.0
146 286 1.0
147 1 -30.0
147 178 1.0
147 189 1.0
147 200 1.0
147 211 1.0
147 222 1.0
147 287 1.0
147 288 1.0
147 289 1.0
147 290 1.0
147 291 1.0
147 292 1.0
147 293 1.0
147 294 1.0
147 295 1.0
147 296 1.0
148 2 -100.0
148 179 1.0
148 190 1.0
148 201 1.0
148 212 1.0
148 223 1.0
148 297 1.0
148 298 1.0
148 299 1.0
148 300 1.0
148 301 1.0
148 302 1.0
148 303 1.0
148 304 1.0
148 305 1.0
148 306 1.0
149 3 -50.0
149 180 1.0
149 191 1.0
149 202 1.0
149 213 1.0
149 224 1.0
149 307 1.0
149 308 1.0
149 309 1.0
149 310 1.0
149 311 1.0
149 312 1.0
149 313 1.0
149 314 1.0
149 315 1.0
149 316 1.0
150 4 -227.0
150 181 1.0
150 192 1.0
150 203 1.0
150 214 1.0
150 225 1.0
150 317 1.0
150 318 1.0
150 319 1.0
150 320 1.0
150 321 1.0
150 322 1.0
150 323 1.0
150 324 1.0
150 325 1.0
150 326 1.0
151 5 -100.0
151 182 1.0
151 193 1.0
151 204 1.0
151 215 1.0
151 226 1.0
151 327 1.0
151 328 1.0
151 329 1.0
151 330 1.0
151 331 1.0
151 332 1.0
151 333 1.0
151 334 1.0
151 335 1.0
151 336 1.0
152 6 -300.0
152 183 1.0
152 194 1.0
152 205 1.0
152 216 1.0
152 227 1.0
152 337 1.0
152 338 1.0
152 339 1.0
152 340 1.0
152 341 1.0
152 342 1.0
152 343 1.0
152 344 1.0
152 345 1.0
152 346 1.0
153 7 -12.0
153 184 1.0
153 195 1.0
153 206 1.0
153 217 1.0
153 228 1.0
153 347 1.0
153 348 1.0
153 349 1.0
153 350 1.0
153 351 1.0
153 352 1.0
153 353 1.0
153 354 1.0
153 355 1.0
153 356 1.0
154 8 -970.0
154 185 1.0
154 196 1.0
154 207 1.0
154 218 1.0
154 229 1.0
154 357 1.0
154 358 1.0
154 359 1.0
154 360 1.0
154 361 1.0
154 362 1.0
154 363 1.0
154 364 1.0
154 365 1.0
154 366 1.0
155 9 -20.0
155 186 1.0
155 197 1.0
155 208 1.0
155 219 1.0
155 230 1.0
155 367 1.0
155 368 1.0
155 369 1.0
155 370 1.0
155 371 1.0
155 372 1.0
155 373 1.0
155 374 1.0
155 375 1.0
155 376 1.0
156 10 -250.0
156 187 1.0
156 198 1.0
156 209 1.0
156 220 1.0
156 231 1.0
156 377 1.0
156 378 1.0
156 379 1.0
156 380 1.0
156 381 1.0
156 382 1.0
156 383 1.0
156 384 1.0
156 385 1.0
156 386 1.0
157 178 0.05
157 189 0.05
157 200 0.05
157 211 0.05
157 222 0.05
157 287 0.05
157 288 0.05
157 289 0.05
157 290 0.05
157 291 0.05
157 292 0.05
157 293 0.05
157 294 0.05
157 295 0.05
157 296 0.05
157 387 -1.0
158 179 0.2
158 190 0.2
158 201 0.2
158 212 0.2
158 223 0.2
158 297 0.2
158 298 0.2
158 299 0.2
158 300 0.2
158 301 0.2
158 302 0.2
158 303 0.2
158 304 0.2
158 305 0.2
158 306 0.2
158 388 -1.0
159 180 0.15
159 191 0.15
159 202 0.15
159 213 0.15
159 224 0.15
159 307 0.15
159 308 0.15
159 309 0.15
159 310 0.15
159 311 0.15
159 312 0.15
159 313 0.15
159 314 0.15
159 315 0.15
159 316 0.15
159 389 -1.0
160 181 0.88
160 192 0.88
160 203 0.88
160 214 0.88
160 225 0.88
160 317 0.88
160 318 0.88
160 319 0.88
160 320 0.88
160 321 0.88
160 322 0.88
160 323 0.88
160 324 0.88
160 325 0.88
160 326 0.88
160 390 -1.0
161 182 0.7
161 193 0.7
161 204 0.7
161 215 0.7
161 226 0.7
161 327 0.7
161 328 0.7
161 329 0.7
161 330 0.7
161 331 0.7
161 332 0.7
161 333 0.7
161 334 0.7
161 335 0.7
161 336 0.7
161 391 -1.0
162 183 0.4
162 194 0.4
162 205 0.4
162 216 0.4
162 227 0.4
162 337 0.4
162 338 0.4
162 339 0.4
162 340 0.4
162 341 0.4
162 342 0.4
162 343 0.4
162 344 0.4
162 345 0.4
162 346 0.4
162 392 -1.0
163 184 0.33
163 195 0.33
163 206 0.33
163 217 0.33
163 228 0.33
163 347 0.33
163 348 0.33
163 349 0.33
163 350 0.33
163 351 0.33
163 352 0.33
163 353 0.33
163 354 0.33
163 355 0.33
163 356 0.33
163 393 -1.0
164 185 0.3
164 196 0.3
164 207 0.3
164 218 0.3
164 229 0.3
164 357 0.3
164 358 0.3
164 359 0.3
164 360 0.3
164 361 0.3
164 362 0.3
164 363 0.3
164 364 0.3
164 365 0.3
164 366 0.3
164 394 -1.0
165 186 0.4
165 197 0.4
165 208 0.4
165 219 0.4
165 230 0.4
165 367 0.4
165 368 0.4
165 369 0.4
165 370 0.4
165 371 0.4
165 372 0.4
165 373 0.4
165 374 0.4
165 375 0.4
165 376 0.4
165 395 -1.0
166 187 0.3
166 198 0.3
166 209 0.3
166 220 0.3
166 231 0.3
166 377 0.3
166 378 0.3
166 379 0.3
166 380 0.3
166 381 0.3
166 382 0.3
166 383 0.3
166 384 0.3
166 385 0.3
166 386 0.3
166 396 -1.0
167 287 -1.0
167 297 -1.0
167 307 -1.0
167 317 -1.0
167 327 -1.0
167 337 -1.0
167 347 -1.0
167 357 -1.0
167 367 -1.0
167 377 -1.0
167 387 1.0
167 397 -1.0
168 288 -1.0
168 298 -1.0
168 308 -1.0
168 318 -1.0
168 328 -1.0
168 338 -1.0
168 348 -1.0
168 358 -1.0
168 368 -1.0
168 378 -1.0
168 388 1.0
168 398 -1.0
169 289 -1.0
169 299 -1.0
169 309 -1.0
169 319 -1.0
169 329 -1.0
169 339 -1.0
169 349 -1.0
169 359 -1.0
169 369 -1.0
169 379 -1.0
169 389 1.0
169 399 -1.0
170 290 -1.0
170 300 -1.0
170 310 -1.0
170 320 -1.0
170 330 -1.0
170 340 -1.0
170 350 -1.0
170 360 -1.0
170 370 -1.0
170 380 -1.0
170 390 1.0
170 400 -1.0
171 291 -1.0
171 301 -1.0
171 311 -1.0
171 321 -1.0
171 331 -1.0
171 341 -1.0
171 351 -1.0
171 361 -1.0
171 371 -1.0
171 381 -1.0
171 391 1.0
171 401 -1.0
172 292 -1.0
172 302 -1.0
172 312 -1.0
172 322 -1.0
172 332 -1.0
172 342 -1.0
172 352 -1.0
172 362 -1.0
172 372 -1.0
172 382 -1.0
172 392 1.0
172 402 -1.0
173 293 -1.0
173 303 -1.0
173 313 -1.0
173 323 -1.0
173 333 -1.0
173 343 -1.0
173 353 -1.0
173 363 -1.0
173 373 -1.0
173 383 -1.0
173 393 1.0
173 403 -1.0
174 294 -1.0
174 304 -1.0
174 314 -1.0
174 324 -1.0
174 334 -1.0
174 344 -1.0
174 354 -1.0
174 364 -1.0
174 374 -1.0
174 384 -1.0
174 394 1.0
174 404 -1.0
175 295 -1.0
175 305 -1.0
175 315 -1.0
175 325 -1.0
175 335 -1.0
175 345 -1.0
175 355 -1.0
175 365 -1.0
175 375 -1.0
175 385 -1.0
175 395 1.0
175 405 -1.0
176 296 -1.0
176 306 -1.0
176 316 -1.0
176 326 -1.0
176 336 -1.0
176 346 -1.0
176 356 -1.0
176 366 -1.0
176 376 -1.0
176 386 -1.0
176 396 1.0
176 406 -1.0
177 407 1.0
177 408 1.0
177 409 1.0
177 410 1.0
177 411 1.0
177 412 1.0
177 413 1.0
177 414 1.0
177 415 1.0
177 416 1.0
177 417 1.0
178 418 1.0
178 419 1.0
178 420 1.0
178 421 1.0
178 422 1.0
178 423 1.0
178 424 1.0
178 425 1.0
178 426 1.0
178 427 1.0
178 428 1.0
179 429 1.0
179 430 1.0
179 431 1.0
179 432 1.0
179 433 1.0
179 434 1.0
179 435 1.0
179 436 1.0
179 437 1.0
179 438 1.0
179 439 1.0
180 440 1.0
180 441 1.0
180 442 1.0
180 443 1.0
180 444 1.0
180 445 1.0
180 446 1.0
180 447 1.0
180 448 1.0
180 449 1.0
180 450 1.0
181 451 1.0
181 452 1.0
181 453 1.0
181 454 1.0
181 455 1.0
181 456 1.0
181 457 1.0
181 458 1.0
181 459 1.0
181 460 1.0
181 461 1.0
182 462 1.0
182 463 1.0
182 464 1.0
182 465 1.0
182 466 1.0
182 467 1.0
182 468 1.0
182 469 1.0
182 470 1.0
182 471 1.0
182 472 1.0
183 473 1.0
183 474 1.0
183 475 1.0
183 476 1.0
183 477 1.0
183 478 1.0
183 479 1.0
183 480 1.0
183 481 1.0
183 482 1.0
183 483 1.0
184 484 1.0
184 485 1.0
184 486 1.0
184 487 1.0
184 488 1.0
184 489 1.0
184 490 1.0
184 491 1.0
184 492 1.0
184 493 1.0
184 494 1.0
185 495 1.0
185 496 1.0
185 497 1.0
185 498 1.0
185 499 1.0
185 500 1.0
185 501 1.0
185 502 1.0
185 503 1.0
185 504 1.0
185 505 1.0
186 506 1.0
186 507 1.0
186 508 1.0
186 509 1.0
186 510 1.0
186 511 1.0
186 512 1.0
186 513 1.0
186 514 1.0
186 515 1.0
186 516 1.0
187 176 -10.0
187 177 1.0
187 188 1.0
187 199 1.0
187 210 1.0
187 221 1.0
187 397 1.0
187 398 1.0
187 399 1.0
187 400 1.0
187 401 1.0
187 402 1.0
187 403 1.0
187 404 1.0
187 405 1.0
187 406 1.0
188 287 -1.0
189 297 -1.0
190 307 -1.0
191 317 -1.0
192 327 -1.0
193 337 -1.0
194 347 -1.0
195 357 -1.0
196 367 -1.0
197 377 -1.0
198 288 -1.0
199 298 -1.0
200 308 -1.0
201 318 -1.0
202 328 -1.0
203 338 -1.0
204 348 -1.0
205 358 -1.0
206 368 -1.0
207 378 -1.0
208 289 -1.0
209 299 -1.0
210 309 -1.0
211 319 -1.0
212 329 -1.0
213 339 -1.0
214 349 -1.0
215 359 -1.0
216 369 -1.0
217 379 -1.0
218 290 -1.0
219 300 -1.0
220 310 -1.0
221 320 -1.0
222 330 -1.0
223 340 -1.0
224 350 -1.0
225 360 -1.0
226 370 -1.0
227 380 -1.0
228 291 -1.0
229 301 -1.0
230 311 -1.0
231 321 -1.0
232 331 -1.0
233 341 -1.0
234 351 -1.0
235 361 -1.0
236 371 -1.0
237 381 -1.0
238 292 -1.0
239 302 -1.0
240 312 -1.0
241 322 -1.0
242 332 -1.0
243 342 -1.0
244 352 -1.0
245 362 -1.0
246 372 -1.0
247 382 -1.0
248 293 -1.0
249 303 -1.0
250 313 -1.0
251 323 -1.0
252 333 -1.0
253 343 -1.0
254 353 -1.0
255 363 -1.0
256 373 -1.0
257 383 -1.0
258 294 -1.0
259 304 -1.0
260 314 -1.0
261 324 -1.0
262 334 -1.0
263 344 -1.0
264 354 -1.0
265 364 -1.0
266 374 -1.0
267 384 -1.0
268 295 -1.0
269 305 -1.0
270 315 -1.0
271 325 -1.0
272 335 -1.0
273 345 -1.0
274 355 -1.0
275 365 -1.0
276 375 -1.0
277 385 -1.0
278 296 -1.0
279 306 -1.0
280 316 -1.0
281 326 -1.0
282 336 -1.0
283 346 -1.0
284 356 -1.0
285 366 -1.0
286 376 -1.0
287 386 -1.0
288 397 -1.0
289 398 -1.0
290 399 -1.0
291 400 -1.0
292 401 -1.0
293 402 -1.0
294 403 -1.0
295 404 -1.0
296 405 -1.0
297 406 -1.0
298 66 -1.0
299 76 -1.0
300 86 -1.0
301 96 -1.0
302 106 -1.0
303 116 -1.0
304 126 -1.0
305 136 -1.0
306 146 -1.0
307 156 -1.0
308 67 -1.0
309 77 -1.0
310 87 -1.0
311 97 -1.0
312 107 -1.0
313 117 -1.0
314 127 -1.0
315 137 -1.0
316 147 -1.0
317 157 -1.0
318 68 -1.0
319 78 -1.0
320 88 -1.0
321 98 -1.0
322 108 -1.0
323 118 -1.0
324 128 -1.0
325 138 -1.0
326 148 -1.0
327 158 -1.0
328 69 -1.0
329 79 -1.0
330 89 -1.0
331 99 -1.0
332 109 -1.0
333 119 -1.0
334 129 -1.0
335 139 -1.0
336 149 -1.0
337 159 -1.0
338 70 -1.0
339 80 -1.0
340 90 -1.0
341 100 -1.0
342 110 -1.0
343 120 -1.0
344 130 -1.0
345 140 -1.0
346 150 -1.0
347 160 -1.0
348 71 -1.0
349 81 -1.0
350 91 -1.0
351 101 -1.0
352 111 -1.0
353 121 -1.0
354 131 -1.0
355 141 -1.0
356 151 -1.0
357 161 -1.0
358 72 -1.0
359 82 -1.0
360 92 -1.0
361 102 -1.0
362 112 -1.0
363 122 -1.0
364 132 -1.0
365 142 -1.0
366 152 -1.0
367 162 -1.0
368 73 -1.0
369 83 -1.0
370 93 -1.0
371 103 -1.0
372 113 -1.0
373 123 -1.0
374 133 -1.0
375 143 -1.0
376 153 -1.0
377 163 -1.0
378 74 -1.0
379 84 -1.0
380 94 -1.0
381 104 -1.0
382 114 -1.0
383 124 -1.0
384 134 -1.0
385 144 -1.0
386 154 -1.0
387 164 -1.0
388 75 -1.0
389 85 -1.0
390 95 -1.0
391 105 -1.0
392 115 -1.0
393 125 -1.0
394 135 -1.0
395 145 -1.0
396 155 -1.0
397 165 -1.0
398 166 -1.0
399 167 -1.0
400 168 -1.0
401 169 -1.0
402 170 -1.0
403 171 -1.0
404 172 -1.0
405 173 -1.0
406 174 -1.0
407 175 -1.0
1.79769313486232E+308 # value for infinity
0.0 # default left-hand-side value
36 # number of non-default left-hand-sides
1 -90.0
2 -350.0
3 -200.0
4 -40.0
5 -130.0
27 -29700.0
28 -17500.0
29 -30000.0
30 -9600.0
31 -15600.0
142 1.0
143 1.0
144 1.0
145 1.0
146 1.0
147 -1.79769313486232E+308
148 -1.79769313486232E+308
149 -1.79769313486232E+308
150 -1.79769313486232E+308
151 -1.79769313486232E+308
152 -1.79769313486232E+308
153 -1.79769313486232E+308
154 -1.79769313486232E+308
155 -1.79769313486232E+308
156 -1.79769313486232E+308
177 1.0
178 1.0
179 1.0
180 1.0
181 1.0
182 1.0
183 1.0
184 1.0
185 1.0
186 1.0
187 -1.79769313486232E+308
0.0 # default right-hand-side value
25 # number of non-default right-hand-sides
1 -90.0
2 -350.0
3 -200.0
4 -40.0
5 -130.0
27 -29700.0
28 -17500.0
29 -30000.0
30 -9600.0
31 -15600.0
142 1.0
143 1.0
144 1.0
145 1.0
146 1.0
177 1.0
178 1.0
179 1.0
180 1.0
181 1.0
182 1.0
183 1.0
184 1.0
185 1.0
186 1.0
0.0 # default variable lower bound value
0 # number of non-default variable lower bounds
1000000.0 # default variable upper bound value
0 # number of non-default variable upper bounds
0.0 # default variable primal value in starting point
0 # number of non-default variable primal values in starting point
0.0 # default constraint dual value in starting point
0 # number of non-default constraint dual values in starting point
0.0 # default variable bound dual value in starting point
0 # number of non-default variable bound dual values in starting point
0 # number of non-default variable names
0 # number of non-default constraint names
